\ LP format - for model browsing. Use MPS format to capture full model detail.
Maximize
  44.04761904761904 z1 + 23.09523809523808 z2 + 40 z3 + 12.61904761904761 z4
   + 26 z5 + 20.95238095238095 z6 + 16.90476190476188 z7
   + 10.4761904761905 z8 + 16.90476190476191 z9 + 31.4285714285714 z10
   + 12.61904761904761 z11 + 45.95238095238094 z12 + 20 z13
   + 31.42857142857145 z14 + 40.71428571428573 z15 + 39 z16
   + 33.57142857142857 z17 + 40 z18 + 46.19047619047616 z19 + 40 z20
Subject To
 constraint1: 47 z1 + 24 z2 + 41 z3 + 14 z4 + 26 z5 + 23 z6 + 19 z7 + 11 z8
   + 18 z9 + 33 z10 + 13 z11 + 46 z12 + 20 z13 + 32 z14 + 41 z15 + 39 z16
   + 36 z17 + 41 z18 + 48 z19 + 40 z20 <= 200
 constraints2_5_&_16: z5 - z16 = 0
 constraints2_13_&_15: z13 - z15 = 0
 constraints3_1_|_9: z1 + z9 <= 1
 constraints3_3_|_18: z3 + z18 <= 1
 constraints3_3_|_20: z3 + z20 <= 1
 constraints3_4_|_5: z4 + z5 <= 1
 constraints3_5_|_7: z5 + z7 <= 1
 constraints3_5_|_12: z5 + z12 <= 1
 constraints3_5_|_13: z5 + z13 <= 1
 constraints3_5_|_15: z5 + z15 <= 1
 constraints3_5_|_18: z5 + z18 <= 1
 constraints3_5_|_20: z5 + z20 <= 1
 constraints3_7_|_16: z7 + z16 <= 1
 constraints3_8_|_10: z8 + z10 <= 1
 constraints3_9_|_14: z9 + z14 <= 1
 constraints3_11_|_18: z11 + z18 <= 1
 constraints3_11_|_19: z11 + z19 <= 1
 constraints3_12_|_13: z12 + z13 <= 1
 constraints3_12_|_14: z12 + z14 <= 1
 constraints3_12_|_15: z12 + z15 <= 1
 constraints3_13_|_20: z13 + z20 <= 1
 constraints3_15_|_20: z15 + z20 <= 1
 constraints3_18_|_20: z18 + z20 <= 1
Bounds
Binaries
 z1 z2 z3 z4 z5 z6 z7 z8 z9 z10 z11 z12 z13 z14 z15 z16 z17 z18 z19 z20
End
